50	100	100	100
83	86	11
76	95	10
96	89	25
80	88	1
67	92	46
91	71	30
95	78	40
80	92	10
84	70	31
89	79	37
96	67	7
79	84	2
95	97	16
75	74	11
82	93	2
89	76	39
70	93	45
99	81	49
92	70	37
73	93	9
77	87	12
82	79	8
87	76	39
69	95	37
99	94	20
81	91	38
75	82	23
81	99	18
79	85	38
83	75	25
84	76	28
94	90	44
85	86	5
76	92	5
66	68	35
72	72	20
75	93	10
91	86	7
77	86	11
69	93	21
83	80	18
85	87	8
87	99	24
94	82	12
66	80	23
89	90	34
90	89	20
73	79	22
88	74	22
73	74	31
